Sat 19 May 19:18:38 CEST 2018
CPXPARAM_TimeLimit                               45
CPXPARAM_Threads                                 1
CPXPARAM_MIP_Strategy_CallbackReducedLP          0
Tried aggregator 4 times.
MIP Presolve eliminated 5722 rows and 3943 columns.
MIP Presolve modified 8108 coefficients.
Aggregator did 14562 substitutions.
Reduced MIP has 23946 rows, 19186 columns, and 56392 nonzeros.
Reduced MIP has 16708 binaries, 12 generals, 0 SOSs, and 2760 indicators.
Presolve time = 0.29 sec. (730.12 ticks)
Found incumbent of value 31.000000 after 0.46 sec. (899.23 ticks)
Probing time = 0.29 sec. (138.07 ticks)
Tried aggregator 3 times.
Aggregator did 10762 substitutions.
Reduced MIP has 13184 rows, 8424 columns, and 34868 nonzeros.
Reduced MIP has 5946 binaries, 2478 generals, 0 SOSs, and 2760 indicators.
Presolve time = 0.08 sec. (88.18 ticks)
Probing time = 0.18 sec. (111.22 ticks)
Tried aggregator 1 time.
Reduced MIP has 13184 rows, 8424 columns, and 34868 nonzeros.
Reduced MIP has 5946 binaries, 2478 generals, 0 SOSs, and 2760 indicators.
Presolve time = 0.04 sec. (35.06 ticks)
Probing time = 0.01 sec. (6.96 ticks)
Clique table members: 353615.
MIP emphasis: balance optimality and feasibility.
MIP search method: dynamic search.
Parallel mode: none, using 1 thread.
Root relaxation solution time = 0.13 sec. (141.36 ticks)

        Nodes                                         Cuts/
   Node  Left     Objective  IInf  Best Integer    Best Bound    ItCnt     Gap

*     0+    0                           31.0000        0.0000           100.00%
      0     0        0.0000  4246       31.0000        0.0000     1187  100.00%
      0     0        0.0000  2831       31.0000 Cliques: 3396     3164  100.00%
      0     0        0.0000  2583       31.0000 Cliques: 3396     3412  100.00%
      0     0        0.0000  2336       31.0000 Cliques: 3396     3693  100.00%
      0     0        0.0000  1580       31.0000    Cuts: 3027     4102  100.00%
      0     0        0.0000  1936       31.0000     Cuts: 822     4336  100.00%
      0     0        0.0000   109       31.0000  Impl Bds: 17     4830  100.00%
      0     0        0.0000  1020       31.0000     Cuts: 773     5655  100.00%
*     0+    0                           27.0000        0.0000           100.00%
      0     2        0.0000  1069       27.0000        0.0000     5900  100.00%
Elapsed time = 42.07 sec. (43007.41 ticks, tree = 0.01 MB, solutions = 2)
      7     9        0.0000  1262       27.0000        0.0000     6686  100.00%
      9    11        0.0000  1278       27.0000        0.0000     6872  100.00%
     11    13        0.0000  1264       27.0000        0.0000     7101  100.00%
     23    25        0.0000  1250       27.0000        0.0000     7588  100.00%
     25    27       16.0000  1249       27.0000        0.0000     7843  100.00%
     32    34        8.0000  1284       27.0000        0.0000     8159  100.00%
     46    48        0.0000  1350       27.0000        0.0000     8533  100.00%
     50    52        0.0000  1338       27.0000        0.0000     8542  100.00%

Clique cuts applied:  3574
Implied bound cuts applied:  230
Zero-half cuts applied:  23
Gomory fractional cuts applied:  1

Root node processing (before b&c):
  Real time             =   41.89 sec. (42866.61 ticks)
Sequential b&c:
  Real time             =    3.12 sec. (2581.86 ticks)
                          ------------
Total (root+branch&cut) =   45.01 sec. (45448.47 ticks)
   | W
 L |  0  1  2  3  4  5 
----------------------
 0 |  .  .  .  3  .  . 
 1 |  .  .  .  3  .  . 
 2 |  .  6  6  6  .  . 
 3 |  .  .  .  .  .  . 
 4 | 10 10 10 10 10  . 
 5 | 10 10 10 10 10  . 
 6 | 10 10 10 10 10  . 
 7 | 10 10 10 10 10  4 
 8 | 10 10 10 10 10  4 
 9 |  .  .  .  .  .  . 
10 |  .  .  .  .  .  5 
11 |  .  .  9  9  9  5 
12 |  .  .  9  9  9  . 
13 |  .  .  .  .  .  . 
14 |  .  .  .  .  .  . 
15 |  .  .  .  .  8  8 
16 |  .  .  .  .  8  8 
17 |  .  .  .  .  8  8 
18 |  .  .  .  .  .  7 
19 |  .  .  .  .  .  7 
20 |  .  .  .  1  .  7 
21 |  .  .  .  .  .  . 
22 |  2 11 11 11 11 11 
23 |  2 11 11 11 11 11 
24 |  . 11 11 11 11 11 
25 |  . 11 11 11 11 11 
26 |  . 11 11 11 11 11 
27 |  .  .  .  .  .  . 
28 |  .  .  .  .  .  . 
29 |  .  .  .  .  .  . 
30 |  .  .  .  .  .  . 

Boxes' corners:       (w,l)
    Box  1 is at 
        top left     (3,20)
        bottom right (3,20)

    Box  2 is at 
        top left     (0,22)
        bottom right (0,23)

    Box  3 is at 
        top left     (3,0)
        bottom right (3,1)

    Box  4 is at 
        top left     (5,7)
        bottom right (5,8)

    Box  5 is at 
        top left     (5,10)
        bottom right (5,11)

    Box  6 is at 
        top left     (1,2)
        bottom right (3,2)

    Box  7 is at 
        top left     (5,18)
        bottom right (5,20)

    Box  8 is at 
        top left     (4,15)
        bottom right (5,17)

    Box  9 is at 
        top left     (2,11)
        bottom right (4,12)

    Box 10 is at 
        top left     (0,4)
        bottom right (4,8)

    Box 11 is at 
        top left     (1,22)
        bottom right (5,26)

    Roll length used: 27
In 45.27 seconds
